10 10 4

0 438 155 235 298 106 422 471 395 380 
207 0 115 119 474 248 350 221 215 126 
381 160 0 95 54 325 213 416 305 392 
145 114 483 0 177 258 137 362 262 400 
284 232 295 370 0 389 360 439 118 314 
289 290 236 365 377 0 102 167 137 378 
86 52 182 184 355 453 0 166 482 210 
460 99 422 359 333 360 360 0 202 456 
220 141 73 240 136 69 426 207 0 152 
235 324 240 112 360 242 451 494 303 0 

291.06 0 1
291.06 1 5
291.06 2 6
291.06 3 8
291.06 4 6
291.06 5 8
291.06 6 0
291.06 7 8
291.06 8 6
291.06 9 1

